n_res = 4;
rc = [ 15, 16, 14, 10 ];
n_tasks = 30;
d = [ 1, 2, 7, 7, 4, 3, 2, 5, 8, 10, 6, 7, 8, 9, 7, 6, 9, 4, 1, 3, 5, 3, 2, 4, 1, 9, 6, 3, 1, 6 ];
rr = [| 0, 0, 0, 8, 0, 5, 0, 0, 0, 8, 0, 1, 0, 0, 0, 3, 0, 0, 9, 0, 0, 10, 0, 0, 0, 0, 8, 0, 0, 0
      | 0, 0, 0, 0, 0, 0, 0, 0, 4, 0, 0, 0, 0, 0, 0, 0, 0, 0, 0, 1, 0, 0, 8, 0, 0, 10, 0, 0, 0, 3
      | 0, 5, 10, 0, 3, 0, 2, 0, 0, 0, 1, 0, 0, 10, 2, 0, 6, 0, 0, 0, 0, 0, 0, 9, 8, 0, 0, 0, 6, 0
      | 2, 0, 0, 0, 0, 0, 0, 3, 0, 0, 0, 0, 6, 0, 0, 0, 0, 10, 0, 0, 4, 0, 0, 0, 0, 0, 0, 3, 0, 0 |];
suc = [ { 2 }, 
        { 1 }, 
        { 4 }, 
        { 3 }, 
        { 6 }, 
        { 5 }, 
        { 8 }, 
        { 7 }, 
        { 10 }, 
        { 9 }, 
        { 12 }, 
        { 11 }, 
        { 14 }, 
        { 13 }, 
        { 16 }, 
        { 15 }, 
        { 18 }, 
        { 17 }, 
        { 20 }, 
        { 19 }, 
        { 22 }, 
        { 21 }, 
        { 24 }, 
        { 23 }, 
        { 26 }, 
        { 25 }, 
        { 28 }, 
        { 27 }, 
        { 30 }, 
        { 29 }]; 
